language ESSENCE' 1.0

letting n_courses be 110
letting n_periods be 22
letting prerequisite_RelationAsSet_Explicit_1 be
        [1, 1, 1, 1, 1, 1, 1, 1, 1, 1, 1, 2, 2, 2, 2, 3, 3, 3, 3, 3, 3, 3, 3, 3, 3, 4, 4, 4, 4, 4, 4, 4, 4, 5, 5, 5, 5,
         6, 6, 6, 6, 6, 6, 6, 7, 7, 7, 7, 7, 7, 8, 8, 8, 8, 8, 8, 9, 9, 9, 9, 9, 10, 10, 10, 10, 10, 11, 11, 11, 11, 12,
         12, 12, 12, 12, 12, 12, 13, 13, 13, 13, 13, 13, 13, 13, 13, 13, 13, 13, 13, 14, 14, 14, 14, 14, 14, 14, 14, 14,
         15, 15, 15, 15, 15, 16, 16, 16, 16, 16, 16, 17, 17, 17, 17, 17, 17, 17, 17, 17, 18, 18, 18, 18, 18, 18, 18, 18,
         19, 19, 19, 19, 19, 19, 19, 20, 20, 20, 20, 20, 21, 21, 21, 21, 21, 22, 22, 22, 23, 23, 23, 23, 23, 23, 23, 23,
         23, 23, 24, 24, 24, 24, 24, 24, 24, 25, 25, 26, 26, 26, 26, 26, 26, 27, 27, 27, 27, 27, 27, 27, 27, 28, 28, 28,
         28, 28, 29, 29, 29, 29, 29, 29, 29, 29, 30, 30, 30, 30, 30, 31, 31, 31, 31, 31, 31, 31, 31, 31, 31, 32, 32, 33,
         33, 33, 34, 34, 34, 35, 35, 36, 36, 37, 37, 37, 37, 38, 38, 38, 39, 39, 39, 39, 39, 40, 40, 40, 41, 41, 42, 42,
         42, 43, 43, 43, 43, 43, 44, 44, 44, 44, 44, 45, 45, 45, 46, 47, 48, 48, 48, 48, 49, 49, 49, 50, 50, 50, 51, 51,
         51, 51, 51, 51, 51, 51, 52, 52, 52, 52, 53, 53, 53, 53, 54, 54, 54, 55, 55, 55, 55, 55, 55, 55, 55, 56, 56, 56,
         57, 57, 58, 58, 59, 59, 60, 60, 60, 60, 61, 61, 61, 62, 62, 62, 62, 62, 62, 62, 62, 63, 63, 64, 64, 64, 64, 65,
         65, 65, 65, 66, 66, 67, 67, 67, 67, 68, 68, 69, 69, 69, 69, 71, 72, 72, 73, 74, 74, 74, 74, 75, 75, 75, 75, 75,
         75, 75, 76, 76, 76, 77, 77, 77, 77, 78, 78, 78, 78, 79, 79, 79, 79, 79, 80, 80, 80, 80, 80, 80, 81, 81, 81, 81,
         83, 83, 83, 84;
             int(1..383)]
letting prerequisite_RelationAsSet_Explicit_2 be
        [34, 39, 41, 42, 43, 44, 46, 52, 58, 66, 73, 38, 70, 74, 80, 40, 44, 45, 48, 49, 54, 57, 67, 74, 77, 32, 43, 47,
         51, 67, 73, 79, 84, 47, 56, 67, 82, 32, 41, 53, 57, 58, 67, 77, 36, 41, 60, 67, 71, 80, 41, 55, 61, 66, 68, 72,
         32, 52, 63, 74, 82, 37, 48, 65, 69, 79, 38, 39, 48, 75, 41, 44, 49, 58, 63, 70, 79, 38, 43, 45, 50, 57, 59, 61,
         72, 73, 74, 77, 81, 82, 36, 43, 49, 53, 54, 55, 71, 76, 78, 46, 47, 71, 77, 84, 33, 51, 59, 61, 62, 77, 33, 35,
         37, 42, 53, 54, 55, 66, 73, 35, 37, 41, 44, 68, 75, 76, 80, 33, 37, 39, 58, 63, 74, 76, 39, 41, 56, 65, 77, 36,
         37, 51, 72, 83, 60, 77, 79, 32, 53, 55, 56, 68, 69, 72, 77, 82, 84, 35, 42, 54, 55, 63, 68, 77, 36, 81, 43, 53,
         58, 64, 65, 76, 40, 41, 42, 59, 62, 72, 79, 83, 34, 35, 46, 59, 77, 34, 35, 40, 43, 45, 51, 81, 82, 57, 60, 68,
         78, 82, 40, 44, 47, 49, 50, 64, 66, 67, 70, 76, 103, 106, 96, 100, 102, 98, 102, 106, 94, 95, 94, 107, 87, 91,
         96, 109, 85, 91, 102, 92, 101, 102, 107, 109, 87, 99, 104, 86, 107, 85, 98, 102, 88, 89, 93, 96, 98, 86, 105,
         107, 108, 109, 97, 99, 102, 96, 109, 85, 86, 87, 96, 87, 95, 103, 85, 104, 105, 87, 90, 91, 93, 98, 103, 107,
         110, 86, 94, 100, 106, 87, 99, 100, 108, 85, 104, 106, 85, 87, 88, 90, 102, 104, 108, 110, 88, 93, 103, 86, 93,
         102, 110, 89, 93, 100, 102, 105, 110, 92, 100, 105, 85, 88, 89, 91, 92, 93, 95, 99, 90, 97, 86, 90, 103, 106,
         86, 99, 103, 108, 88, 108, 87, 98, 101, 105, 89, 110, 85, 89, 102, 104, 107, 96, 108, 102, 89, 104, 106, 108,
         87, 90, 91, 97, 100, 108, 109, 85, 104, 108, 87, 88, 89, 101, 96, 99, 101, 102, 88, 95, 96, 100, 102, 86, 92,
         99, 101, 103, 110, 87, 91, 99, 101, 93, 98, 100, 103;
             int(1..383)]
letting course_load_Function1D be
        [5, 7, 7, 2, 6, 3, 2, 4, 2, 4, 2, 8, 3, 3, 4, 3, 8, 5, 3, 5, 2, 6, 5, 7, 2, 6, 2, 6, 6, 2, 5, 3, 7, 8, 5, 3, 3,
         4, 2, 6, 2, 3, 6, 7, 4, 7, 6, 3, 2, 7, 2, 4, 4, 5, 4, 5, 4, 7, 6, 2, 8, 5, 7, 7, 3, 4, 4, 4, 5, 6, 6, 3, 6, 2,
         7, 4, 6, 8, 7, 5, 3, 6, 5, 2, 3, 3, 8, 2, 8, 5, 7, 5, 6, 2, 3, 6, 6, 5, 7, 4, 7, 7, 2, 3, 5, 2, 7, 7, 2, 7;
             int(1..110)]
letting load_per_period_ub be 24
letting load_per_period_lb be 5
letting courses_per_period_ub be 8
letting courses_per_period_lb be 5
letting fin1 be 383
letting fin2 be 110
letting fin3 be 8
